sat
(model 
  (define-fun x8 () Real
    (- 1.0))
  (define-fun x3 () Real
    (- 1.0))
  (define-fun x2 () Real
    0.0)
  (define-fun x1 () Real
    0.0)
  (define-fun x6 () Real
    0.0)
  (define-fun x5 () Real
    0.0)
  (define-fun x4 () Real
    0.0)
  (define-fun x7 () Real
    0.0)
)
